\ Model RMP_copy
\ LP format - for model browsing. Use MPS format to capture full model detail.
Minimize
  90.2 r_3 + 91.66 r_4 + 84.48 r_5 + 84.48 r_6 + 85.66 r_7 + 84 r_8 + 82 r_9
   + 84.48 r_10 + 87.22 r_11 + 90.2 r_12 + 90.78 r_13 + 126.86 r_14
   + 92.95 r_1000 + 102.94 r_1001 + 122.94 r_1002 + 80 r_1003
   + 107.41 r_1004 + 103.48 r_1005 + 107.4 r_1006
Subject To
 3: r_3 + r_1000 = 1
 4: r_4 + r_1000 + r_1004 + r_1005 + r_1006 = 1
 5: r_5 + r_1001 + r_1005 + r_1006 = 1
 6: r_6 + r_1000 + r_1004 = 1
 7: r_7 + r_1001 + r_1004 + r_1005 + r_1006 = 1
 8: r_8 + r_1001 + r_1004 + r_1005 + r_1006 = 1
 9: r_9 + r_1001 + r_1004 + r_1005 + r_1006 = 1
 10: r_10 + r_1001 + r_1004 + r_1005 + r_1006 = 1
 11: r_11 + r_1001 + r_1004 + r_1005 = 1
 12: r_12 + r_1002 = 1
 13: r_13 + r_1001 + r_1004 + r_1006 = 1
 14: r_14 + r_1002 + r_1003 = 1
Bounds
 r_3 <= 1
 r_4 <= 1
 r_5 <= 1
 r_6 <= 1
 r_7 <= 1
 r_8 <= 1
 r_9 <= 1
 r_10 <= 1
 r_11 <= 1
 r_12 <= 1
 r_13 <= 1
 r_14 <= 1
 r_1000 <= 1
 r_1001 <= 1
 r_1002 <= 1
 r_1003 <= 1
 r_1004 <= 1
 r_1005 <= 1
 r_1006 <= 1
End
